
******************************************************************************
This program contains Ipopt, a library for large-scale nonlinear optimization.
 Ipopt is released as open source code under the Eclipse Public License (EPL).
         For more information visit http://projects.coin-or.org/Ipopt

This version of Ipopt was compiled from source code available at
    https://github.com/IDAES/Ipopt as part of the Institute for the Design of
    Advanced Energy Systems Process Systems Engineering Framework (IDAES PSE
    Framework) Copyright (c) 2018-2019. See https://github.com/IDAES/idaes-pse.

This version of Ipopt was compiled using HSL, a collection of Fortran codes
    for large-scale scientific computation.  All technical papers, sales and
    publicity material resulting from use of the HSL codes within IPOPT must
    contain the following acknowledgement:
        HSL, a collection of Fortran codes for large-scale scientific
        computation. See http://www.hsl.rl.ac.uk.
******************************************************************************

This is Ipopt version 3.13.2, running with linear solver ma27.

Number of nonzeros in equality constraint Jacobian...:      808
Number of nonzeros in inequality constraint Jacobian.:        0
Number of nonzeros in Lagrangian Hessian.............:      702

Total number of variables............................:      351
                     variables with only lower bounds:      108
                variables with lower and upper bounds:      189
                     variables with only upper bounds:        0
Total number of equality constraints.................:      350
Total number of inequality constraints...............:        0
        inequality constraints with only lower bounds:        0
   inequality constraints with lower and upper bounds:        0
        inequality constraints with only upper bounds:        0

iter    objective    inf_pr   inf_du lg(mu)  ||d||  lg(rg) alpha_du alpha_pr  ls
   0  0.0000000e+00 4.48e-01 2.22e-16  -1.0 0.00e+00    -  0.00e+00 0.00e+00   0
   1  1.3190764e+00 7.83e-01 1.16e+05  -1.0 2.61e+05    -  3.00e-01 2.71e-01h  1
   2  1.4981944e+00 7.61e-01 1.13e+05  -1.0 2.13e+05    -  7.25e-01 2.29e-02h  1
   3  3.6576955e+00 6.11e-01 9.25e+04  -1.0 2.70e+05    -  7.49e-01 1.90e-01h  1
   4  2.9400756e+01 7.38e-02 2.88e+04  -1.0 2.32e+05    -  7.04e-01 9.90e-01h  1
   5  3.4823532e+01 1.01e-03 6.97e+02  -1.0 3.19e+04    -  9.62e-01 9.90e-01h  1
   6  3.4956813e+01 1.18e-05 1.08e+01  -1.0 7.63e+02    -  9.90e-01 9.90e-01h  1
   7  3.5014390e+01 2.93e-05 2.24e+02  -1.0 6.30e+02    -  9.90e-01 9.90e-01H  1
   8  3.4954870e+01 3.88e-04 3.75e+05  -3.8 7.64e+02    -  9.99e-01 8.55e-01f  1
   9  3.4954395e+01 1.48e-07 2.77e+03  -3.8 5.11e+00    -  1.00e+00 1.00e+00h  1
iter    objective    inf_pr   inf_du lg(mu)  ||d||  lg(rg) alpha_du alpha_pr  ls
  10  3.4954395e+01 2.21e-11 1.80e+07  -3.8 6.05e-03    -  1.00e+00 1.00e+00h  1
In iteration 10, 27 Slacks too small, adjusting variable bounds
  11  3.4954395e+01 6.06e-12 1.20e+11  -3.8 9.43e-07    -  1.00e+00 1.00e+00h  1
  12  3.4954395e+01 1.13e-12 6.07e-02  -3.8 9.59e-07    -  1.00e+00 1.00e+00h  1
  13  3.4954244e+01 2.50e-12 2.96e+07  -9.0 1.65e+00    -  1.00e+00 1.00e+00F  1
  14  3.4954244e+01 3.07e-12 3.61e-09  -9.0 9.97e-06    -  1.00e+00 1.00e+00f  1

Number of Iterations....: 14

                                   (scaled)                 (unscaled)
Objective...............:   3.4954244250172259e+01    3.4954244250172259e+01
Dual infeasibility......:   3.6088749766349792e-09    3.6088749766349792e-09
Constraint violation....:   3.0655478155949822e-12    3.0655478155949822e-12
Complementarity.........:   9.0909090909093257e-10    9.0909090909093257e-10
Overall NLP error.......:   7.7088226686982519e-12    3.6088749766349792e-09


Number of objective function evaluations             = 17
Number of objective gradient evaluations             = 15
Number of equality constraint evaluations            = 17
Number of inequality constraint evaluations          = 0
Number of equality constraint Jacobian evaluations   = 15
Number of inequality constraint Jacobian evaluations = 0
Number of Lagrangian Hessian evaluations             = 14
Total CPU secs in IPOPT (w/o function evaluations)   =      0.029
Total CPU secs in NLP function evaluations           =      0.251

EXIT: Optimal Solution Found.
